certificates/rado_a6_c146_N24.cnf
c Rad2 upper bound instance: x1 + 6*x2 - x3 = 146, interval [1,24]
p cnf 24 104
1 3 24 0
-1 -3 -24 0
2 4 24 0
-2 -4 -24 0
3 5 24 0
-3 -5 -24 0
4 6 24 0
-4 -6 -24 0
5 7 24 0
-5 -7 -24 0
6 8 24 0
-6 -8 -24 0
1 9 23 0
-1 -9 -23 0
7 9 24 0
-7 -9 -24 0
2 10 23 0
-2 -10 -23 0
8 10 24 0
-8 -10 -24 0
3 11 23 0
-3 -11 -23 0
9 11 24 0
-9 -11 -24 0
4 12 23 0
-4 -12 -23 0
10 12 24 0
-10 -12 -24 0
5 13 23 0
-5 -13 -23 0
11 13 24 0
-11 -13 -24 0
6 14 23 0
-6 -14 -23 0
12 14 24 0
-12 -14 -24 0
1 15 22 0
-1 -15 -22 0
7 15 23 0
-7 -15 -23 0
13 15 24 0
-13 -15 -24 0
2 16 22 0
-2 -16 -22 0
8 16 23 0
-8 -16 -23 0
14 16 24 0
-14 -16 -24 0
3 17 22 0
-3 -17 -22 0
9 17 23 0
-9 -17 -23 0
15 17 24 0
-15 -17 -24 0
4 18 22 0
-4 -18 -22 0
10 18 23 0
-10 -18 -23 0
16 18 24 0
-16 -18 -24 0
5 19 22 0
-5 -19 -22 0
11 19 23 0
-11 -19 -23 0
17 19 24 0
-17 -19 -24 0
6 20 22 0
-6 -20 -22 0
12 20 23 0
-12 -20 -23 0
18 20 24 0
-18 -20 -24 0
1 21 0
-1 -21 0
7 21 22 0
-7 -21 -22 0
13 21 23 0
-13 -21 -23 0
19 21 24 0
-19 -21 -24 0
2 21 22 0
-2 -21 -22 0
8 22 0
-8 -22 0
14 22 23 0
-14 -22 -23 0
20 22 24 0
-20 -22 -24 0
3 21 23 0
-3 -21 -23 0
9 22 23 0
-9 -22 -23 0
15 23 0
-15 -23 0
21 23 24 0
-21 -23 -24 0
4 21 24 0
-4 -21 -24 0
10 22 24 0
-10 -22 -24 0
16 23 24 0
-16 -23 -24 0
22 24 0
-22 -24 0
