certificates/rado_a6_c146_N24.drat
-24 0
22 0
-8 0
6 0
10 0
-20 0
18 0
-4 0
-23 0
2 0
12 0
21 0
15 0
16 0
0
